; Copyright (c) 2026 The RIINA Authors. All rights reserved.
; Copyright (c) 2026 The RIINA Authors.
; Auto-generated from 02_FORMAL/coq/domains/BackendTraitVerification.v (21 assertions)
; Generated by scripts/generate-full-stack.py
; Module: BackendTraitVerification

(set-logic ALL)
(set-option :produce-models true)

; Target (matches Coq: Inductive Target)
(declare-datatypes ((Target 0)) (((TNative) (TWasm32) (TWasm64) (TAndroidArm64) (TIosArm64))))

; BackendKind (matches Coq: Inductive BackendKind)
(declare-datatypes ((BackendKind 0)) (((BKC) (BKWasm) (BKMobile))))

; OutputFormat (matches Coq: Inductive OutputFormat)
(declare-datatypes ((OutputFormat 0)) (((FmtC) (FmtWasm) (FmtCWithBridge))))

; SecurityProp (matches Coq: Inductive SecurityProp)
(declare-datatypes ((SecurityProp 0)) (((NonInterference) (EffectSafety) (TypeSafety))))

; dispatch (matches Coq: Definition dispatch)
(define-fun dispatch ((t Target)) BackendKind
  true)

; backend_format (matches Coq: Definition backend_format)
(define-fun backend_format ((bk BackendKind)) OutputFormat
  true)

; preserves (matches Coq: Definition preserves)
(define-fun preserves ((bk BackendKind) (prop SecurityProp)) Bool
  true)

; backend_001_dispatch_total (matches Coq: Theorem backend_001_dispatch_total)
(assert (= true true)) ; backend_001_dispatch_total [untranslatable]

; backend_001_dispatch_deterministic (matches Coq: Theorem backend_001_dispatch_deterministic)
(assert (= true true)) ; backend_001_dispatch_deterministic [untranslatable]

; backend_001_native_is_c (matches Coq: Theorem backend_001_native_is_c)
(assert (= (dispatch TNative) BKC)) ; backend_001_native_is_c

; backend_001_wasm32_is_wasm (matches Coq: Theorem backend_001_wasm32_is_wasm)
(assert (= (dispatch TWasm32) BKWasm)) ; backend_001_wasm32_is_wasm

; backend_001_wasm64_is_wasm (matches Coq: Theorem backend_001_wasm64_is_wasm)
(assert (= (dispatch TWasm64) BKWasm)) ; backend_001_wasm64_is_wasm

; backend_002_c_preserves_ni (matches Coq: Theorem backend_002_c_preserves_ni)
(assert (= (preserves BKC NonInterference) true)) ; backend_002_c_preserves_ni

; backend_002_c_preserves_effects (matches Coq: Theorem backend_002_c_preserves_effects)
(assert (= (preserves BKC EffectSafety) true)) ; backend_002_c_preserves_effects

; backend_002_c_preserves_types (matches Coq: Theorem backend_002_c_preserves_types)
(assert (= (preserves BKC TypeSafety) true)) ; backend_002_c_preserves_types

; backend_002_c_format (matches Coq: Theorem backend_002_c_format)
(assert (= true true)) ; backend_002_c_format [untranslatable]

; backend_003_all_preserve_ni (matches Coq: Theorem backend_003_all_preserve_ni)
(assert (= true true)) ; backend_003_all_preserve_ni [untranslatable]

; backend_003_all_preserve_effects (matches Coq: Theorem backend_003_all_preserve_effects)
(assert (= true true)) ; backend_003_all_preserve_effects [untranslatable]

; backend_003_all_preserve_types (matches Coq: Theorem backend_003_all_preserve_types)
(assert (= true true)) ; backend_003_all_preserve_types [untranslatable]

; backend_003_dispatch_preserves_all (matches Coq: Theorem backend_003_dispatch_preserves_all)
(assert (= true true)) ; backend_003_dispatch_preserves_all [untranslatable]

; backend_004_format_total (matches Coq: Theorem backend_004_format_total)
(assert (= true true)) ; backend_004_format_total [untranslatable]

; backend_004_wasm_produces_wasm (matches Coq: Theorem backend_004_wasm_produces_wasm)
(assert (= true true)) ; backend_004_wasm_produces_wasm [untranslatable]

; backend_004_mobile_produces_bridge (matches Coq: Theorem backend_004_mobile_produces_bridge)
(assert (= true true)) ; backend_004_mobile_produces_bridge [untranslatable]

; backend_004_native_produces_c (matches Coq: Theorem backend_004_native_produces_c)
(assert (= true true)) ; backend_004_native_produces_c [untranslatable]

; backend_004_format_consistent (matches Coq: Theorem backend_004_format_consistent)
(assert (= true true)) ; backend_004_format_consistent [untranslatable]

; backend_wasm32_format (matches Coq: Theorem backend_wasm32_format)
(assert (= true true)) ; backend_wasm32_format [untranslatable]

; backend_wasm64_format (matches Coq: Theorem backend_wasm64_format)
(assert (= true true)) ; backend_wasm64_format [untranslatable]

; backend_android_format (matches Coq: Theorem backend_android_format)
(assert (= true true)) ; backend_android_format [untranslatable]

; Verify all assertions are satisfiable
(check-sat)
(exit)
